p tw 20 53
0 1
0 4
0 5
0 13
0 16
0 19
1 9
1 18
1 11
1 13
1 15
1 6
2 3
2 10
2 13
2 16
2 7
2 4
3 7
3 6
3 9
3 15
4 6
4 16
4 13
4 5
4 7
5 18
5 10
5 16
6 10
6 8
7 12
7 19
7 13
8 9
8 11
8 10
8 19
9 14
10 13
10 18
11 14
11 18
11 16
12 13
12 17
12 14
12 18
13 16
13 17
13 14
14 15
